(declare-const X String)
; ^(1[0-2]|0?[1-9]):([0-5]?[0-9])( AM| PM)$
(assert (str.in_re X (re.++ (re.union (re.++ (str.to_re "1") (re.range "0" "2")) (re.++ (re.opt (str.to_re "0")) (re.range "1" "9"))) (str.to_re ":\u{a}") (re.opt (re.range "0" "5")) (re.range "0" "9") (str.to_re " ") (re.union (str.to_re "AM") (str.to_re "PM")))))
; v\u{3B}\d+more.*is\.htazmnjgmomgbdz\u{2f}zzmw\.gzt
(assert (str.in_re X (re.++ (str.to_re "v;") (re.+ (re.range "0" "9")) (str.to_re "more") (re.* re.allchar) (str.to_re "is.htazmnjgmomgbdz/zzmw.gzt\u{a}"))))
; /filename=[^\n]*\u{2e}m4v/i
(assert (not (str.in_re X (re.++ (str.to_re "/filename=") (re.* (re.comp (str.to_re "\u{a}"))) (str.to_re ".m4v/i\u{a}")))))
; Norton customer service is a type of method used to care your personal or business computer system from any virus or spyware.
(assert (not (str.in_re X (re.++ (str.to_re "Norton customer service is a type of method used to care your personal or business computer system from any virus or spyware") re.allchar (str.to_re "\u{a}")))))
(check-sat)
